param n := 2;

param m := 2;

param K := 500;

param a :=
1 	 0.950176
2 	 0.556653
;
 param A :=
[1, *, *]:  1	2	:=
1	0.831213	-0.219985	
2	0.283132	-0.028019	

[2, *, *]:  1	2	:=
1	0.208621	0.852363	
2	0.099096	0.837467	
;